100 88168

 704 241
754 275
66 921
764 77
775 610
672 682
292 506
490 695
111 173
472 853
244 141
350 401
163 76
231 546
77 670
920 942
531 740
397 542
536 933
629 479
922 562
179 597
296 410
976 839
372 186
23 555
148 723
27 904
990 884
279 509
924 644
996 395
600 469
34 907
82 931
482 896
407 139
607 851
439 949
935 362
535 519
694 780
897 563
147 994
230 456
108 714
140 793
513 495
322 857
424 547
983 412
157 108
541 394
99 734
319 922
528 252
947 356
392 154
65 691
389 961
146 641
230 618
619 554
68 89
465 730
610 603
422 662
20 899
986 784
368 781
779 928
326 990
476 582
389 109
343 460
22 788
361 28
890 57
691 68
146 732
592 502
893 369
701 106
149 733
868 322
302 266
455 653
527 560
851 363
932 642
930 272
8 795
922 230
55 159
266 783
515 708
480 183
605 117
480 839
935 777
